p cnf 10 50
7 5 1 0
-8 -10 7 0
7 -8 -6 0
5 -10 6 0
9 -1 8 0
6 -10 -5 0
-1 4 -5 0
6 2 -1 0
2 -3 -5 0
9 5 -1 0
4 -8 2 0
-2 10 8 0
-4 7 9 0
9 -1 -8 0
1 -8 -7 0
-8 -4 -3 0
-4 -1 -3 0
1 -2 8 0
-8 3 -1 0
-10 -5 2 0
8 9 -1 0
-6 2 -3 0
1 8 -9 0
-1 3 -7 0
7 -8 5 0
6 8 4 0
-9 6 5 0
10 8 -5 0
10 8 4 0
4 -1 -2 0
-4 5 -1 0
-10 -3 -5 0
-8 2 -1 0
-7 -3 -9 0
-7 -2 -5 0
-7 4 1 0
2 10 4 0
-2 -6 1 0
6 10 -5 0
2 5 -8 0
10 3 -2 0
5 8 6 0
10 -1 -9 0
10 -1 9 0
8 9 4 0
-8 -2 9 0
4 10 -3 0
-2 -7 -4 0
6 10 -5 0
3 -9 10 0
